2 100 873
3 9 3 3 7 5 7 7 5 2
4 2
7 5 7 1
8 5
0 40.0 50.0 0.0 0.0 0 1236
2 45.0 68.0 90.0 10.0 912 967 68 0 0 0 0 1 0 0 1 0 0
3 45.0 70.0 90.0 30.0 825 870 89 1 0 0 0 0 0 1 0 0 0
4 42.0 66.0 90.0 10.0 65 146 68 0 0 0 0 0 1 0 0 0 0
5 42.0 68.0 90.0 10.0 727 782 76 0 0 0 0 0 1 0 0 0 0
6 42.0 65.0 90.0 10.0 15 67 74 0 0 0 0 0 1 0 0 0 0
7 40.0 69.0 90.0 20.0 621 702 5 0 0 0 1 0 1 0 0 0 0
8 40.0 66.0 90.0 20.0 170 225 44 0 0 0 0 0 1 0 0 0 0
9 38.0 68.0 90.0 20.0 255 324 18 0 0 0 1 0 0 1 1 1 0
10 38.0 70.0 90.0 10.0 534 605 99 0 0 1 0 0 0 0 0 1 1
11 35.0 66.0 90.0 10.0 357 410 53 1 0 0 0 1 0 1 0 0 0
12 35.0 69.0 90.0 10.0 448 505 71 0 0 0 0 0 1 0 0 0 0
13 25.0 85.0 90.0 20.0 652 721 61 0 0 0 0 0 1 0 0 0 0
14 22.0 75.0 90.0 30.0 30 92 55 0 1 0 0 0 0 0 0 0 0
15 22.0 85.0 90.0 10.0 567 620 95 0 0 0 1 0 1 0 0 0 0
16 20.0 80.0 90.0 40.0 384 429 99 0 0 1 0 0 0 0 0 0 0
17 20.0 85.0 90.0 40.0 475 528 91 0 1 0 1 1 0 1 0 0 0
18 18.0 75.0 90.0 20.0 99 148 95 1 1 0 1 0 0 1 1 0 0
19 15.0 75.0 90.0 20.0 179 254 56 0 0 0 0 0 1 0 0 0 0
20 15.0 80.0 90.0 10.0 278 345 29 0 0 1 1 0 1 0 0 1 0
21 30.0 50.0 90.0 10.0 10 73 5 0 0 0 0 0 1 0 0 0 0
22 30.0 52.0 90.0 20.0 914 965 12 1 0 0 0 0 0 0 0 0 0
23 28.0 52.0 90.0 20.0 812 883 43 0 1 0 0 1 1 0 0 1 0
24 28.0 55.0 90.0 10.0 732 777 23 0 1 0 1 0 0 0 0 0 0
25 25.0 50.0 90.0 10.0 65 144 7 1 0 0 0 0 0 0 0 0 0
26 25.0 52.0 90.0 40.0 169 224 29 0 1 0 0 0 1 0 1 0 0
27 25.0 55.0 90.0 10.0 622 701 54 0 0 0 0 0 1 0 0 0 0
28 23.0 52.0 90.0 10.0 261 316 86 1 0 0 0 1 0 1 1 1 0
29 23.0 55.0 90.0 20.0 546 593 46 0 1 0 1 1 0 0 1 0 0
30 20.0 50.0 90.0 10.0 358 405 23 0 0 0 0 1 0 1 0 0 0
31 20.0 55.0 90.0 10.0 449 504 48 0 0 1 0 0 0 0 0 1 0
32 10.0 35.0 90.0 20.0 200 237 17 1 0 0 0 0 0 0 0 0 0
33 10.0 40.0 90.0 30.0 31 100 42 0 1 0 0 0 1 1 0 0 1
34 8.0 40.0 90.0 40.0 87 158 31 0 1 0 0 0 0 0 1 1 1
35 8.0 45.0 90.0 20.0 751 816 83 1 0 1 0 0 1 0 0 1 0
36 5.0 35.0 90.0 10.0 283 344 78 0 0 0 1 0 0 0 1 1 0
37 5.0 45.0 90.0 10.0 665 716 27 1 0 1 0 0 0 0 0 0 0
38 2.0 40.0 90.0 20.0 383 434 35 1 0 0 0 1 1 0 0 0 0
39 0.0 40.0 90.0 30.0 479 522 10 1 0 0 0 0 0 1 0 0 0
40 0.0 45.0 90.0 20.0 567 624 42 0 0 0 1 1 1 0 0 1 1
41 35.0 30.0 90.0 10.0 264 321 64 0 0 0 1 1 0 0 1 1 0
42 35.0 32.0 90.0 10.0 166 235 63 1 0 0 0 0 0 0 0 0 0
43 33.0 32.0 90.0 20.0 68 149 39 0 0 0 1 0 0 0 0 1 0
44 33.0 35.0 90.0 10.0 16 80 28 1 1 1 0 0 1 0 0 0 0
45 32.0 30.0 90.0 10.0 359 412 15 0 0 0 0 0 0 1 0 0 0
46 30.0 30.0 90.0 10.0 541 600 50 0 0 0 0 0 0 0 0 1 0
47 30.0 32.0 90.0 30.0 448 509 24 0 0 0 1 0 0 0 1 0 0
48 30.0 35.0 90.0 10.0 1054 1127 39 0 0 0 0 1 0 0 0 0 0
49 28.0 30.0 90.0 10.0 632 693 52 1 1 0 1 0 0 0 0 0 1
50 28.0 35.0 90.0 10.0 1001 1066 17 0 0 0 0 1 0 0 1 1 0
51 26.0 32.0 90.0 10.0 815 880 3 0 0 0 0 0 0 0 1 0 0
52 25.0 30.0 90.0 10.0 725 786 74 1 0 0 0 0 0 0 0 0 0
53 25.0 35.0 90.0 10.0 912 969 97 0 1 0 0 0 0 1 1 1 0
54 44.0 5.0 90.0 20.0 286 347 99 0 0 0 0 0 0 0 0 0 1
55 42.0 10.0 90.0 40.0 186 257 85 0 0 0 0 0 1 1 0 0 0
56 42.0 15.0 90.0 10.0 95 158 54 0 0 0 0 0 1 0 0 0 0
57 40.0 5.0 90.0 30.0 385 436 99 0 0 0 1 0 0 0 0 0 0
58 40.0 15.0 90.0 40.0 35 87 36 0 1 0 0 0 1 0 0 0 0
59 38.0 5.0 90.0 30.0 471 534 71 0 0 1 1 0 0 1 0 0 0
60 38.0 15.0 90.0 10.0 651 740 66 0 0 0 0 0 1 0 0 0 0
61 35.0 5.0 90.0 20.0 562 629 87 0 0 1 1 0 0 0 0 1 1
62 50.0 30.0 90.0 10.0 531 610 65 0 0 0 1 0 0 0 0 0 0
63 50.0 35.0 90.0 20.0 262 317 64 0 1 0 0 1 0 0 0 0 0
64 50.0 40.0 90.0 50.0 171 218 58 0 0 1 0 1 0 1 0 0 0
65 48.0 30.0 90.0 10.0 632 693 56 0 0 0 0 0 0 0 0 1 0
66 48.0 40.0 90.0 10.0 76 129 40 1 0 0 0 0 0 0 0 0 1
67 47.0 35.0 90.0 10.0 826 875 68 1 0 0 0 1 1 0 0 0 0
68 47.0 40.0 90.0 10.0 12 77 38 0 0 0 0 0 1 0 0 0 0
69 45.0 30.0 90.0 10.0 734 777 28 0 0 0 0 0 1 0 0 0 0
70 45.0 35.0 90.0 10.0 916 969 14 0 0 0 1 0 0 0 0 0 0
71 95.0 30.0 90.0 30.0 387 456 81 1 0 1 0 0 1 0 0 0 0
72 95.0 35.0 90.0 20.0 293 360 55 0 0 1 0 1 1 1 0 0 1
73 53.0 30.0 90.0 10.0 450 505 50 1 0 0 0 1 0 0 0 0 0
74 92.0 30.0 90.0 10.0 478 551 49 0 0 0 0 0 0 0 0 1 0
75 53.0 35.0 90.0 50.0 353 412 6 0 1 0 0 0 0 0 1 0 0
76 45.0 65.0 90.0 20.0 997 1068 12 0 0 0 0 0 1 0 0 0 0
77 90.0 35.0 90.0 10.0 203 260 88 0 1 1 0 0 0 0 0 0 0
78 88.0 30.0 90.0 10.0 574 643 45 0 0 0 0 1 0 0 0 0 0
79 88.0 35.0 90.0 20.0 109 170 60 0 0 0 0 1 0 0 1 0 0
80 87.0 30.0 90.0 10.0 668 731 55 0 1 0 0 1 1 0 0 0 0
81 85.0 25.0 90.0 10.0 769 820 19 0 0 0 0 0 1 0 0 0 0
82 85.0 35.0 90.0 30.0 47 124 35 0 0 0 0 0 0 0 0 1 0
83 75.0 55.0 90.0 20.0 369 420 4 0 0 0 0 0 1 0 0 1 0
84 72.0 55.0 90.0 10.0 265 338 2 0 0 0 0 1 0 1 0 0 1
85 70.0 58.0 90.0 20.0 458 523 17 0 1 0 0 0 0 0 0 1 0
86 68.0 60.0 90.0 30.0 555 612 8 0 0 1 0 0 0 0 1 1 0
87 66.0 55.0 90.0 10.0 173 238 67 0 0 0 0 0 0 0 0 0 1
88 65.0 55.0 90.0 20.0 85 144 89 0 0 0 0 0 1 0 0 0 1
89 65.0 60.0 90.0 30.0 645 708 45 1 1 0 0 0 0 0 0 0 1
90 63.0 58.0 90.0 10.0 737 802 84 0 0 1 0 0 1 0 0 0 0
91 60.0 55.0 90.0 10.0 20 84 12 1 0 0 0 0 0 0 0 0 0
92 60.0 60.0 90.0 10.0 836 889 63 0 0 0 0 1 0 0 0 0 0
93 67.0 85.0 90.0 20.0 368 441 49 0 0 0 0 0 0 0 1 0 1
94 65.0 85.0 90.0 40.0 475 518 30 0 1 0 0 1 0 0 0 0 0
95 65.0 82.0 90.0 10.0 285 336 74 0 0 1 0 0 0 0 0 0 0
96 62.0 80.0 90.0 30.0 196 239 77 0 0 0 0 0 1 0 0 0 0
97 60.0 80.0 90.0 10.0 95 156 53 0 0 0 1 0 0 0 0 0 0
98 60.0 85.0 90.0 30.0 561 622 28 0 0 0 0 1 1 0 0 0 0
99 58.0 75.0 90.0 20.0 30 84 98 1 0 0 0 0 0 0 0 0 0
100 55.0 80.0 90.0 10.0 743 820 68 0 0 0 1 0 0 1 0 0 0
101 55.0 85.0 90.0 20.0 647 726 16 0 0 0 0 0 0 1 0 0 0